c random clauses
p cnf 14 16
-14 -13 -11 1 2 7 9 12 0
-14 -12 -10 -9 -8 -5 4 6 0
-14 -12 -10 -5 1 4 6 7 0
-14 -10 -8 -7 1 3 6 13 0
-14 -9 -6 -4 -2 3 5 11 0
-14 -8 -3 1 4 6 9 11 0
-14 -7 -5 4 6 9 11 12 0
-13 -12 -3 2 4 6 10 11 0
-12 -10 -7 -5 -2 3 11 14 0
-12 -9 -6 -4 -3 10 13 14 0
-12 -7 1 2 5 9 11 14 0
-11 -7 -5 -2 1 4 6 10 0
-10 -9 -6 -5 -3 2 11 14 0
-10 -8 -7 -4 -3 1 13 14 0
-8 -3 1 2 5 6 13 14 0
-6 -1 3 4 10 11 12 14 0
